(set-logic ALL)
(set-option :produce-models true)
(declare-sort BoundSet 0)
(declare-sort UnboundSet 0)
(set-option :finite-model-find true)
(declare-fun DiedPrematurelyFromDisease (BoundSet BoundSet) Bool)
(declare-fun OccurredInYear (BoundSet BoundSet) Bool)
(declare-fun CauseSignificantPortionOfDeaths (BoundSet BoundSet) Bool)
(declare-fun OccursWorldwide (BoundSet BoundSet) Bool)
(assert (not (=> (exists ((a BoundSet)) (exists ((c BoundSet)) (exists ((b BoundSet)) (and (DiedPrematurelyFromDisease b a) (OccurredInYear b c))))) (exists ((e BoundSet)) (exists ((a BoundSet)) (exists ((d BoundSet)) (and (CauseSignificantPortionOfDeaths a d) (OccursWorldwide d e))))))))
(check-sat)
(get-model)